set operator:= A B C D E F;
set day:= Mon Tue Wed Thu Fri;

param  max_day:		
		Mon		Tue		Wed		Thu		Fri:=
A		6		0		6		0		6		
B		0		6		0		6		0
C		4		8		4		0		4
D		5		5		5		0		5
E		3		0		3		8		0
F		0		0		0		6		2;

param wage:=
A		250	
B		260
C		240
D		230
E		280
F		300;

param day_time:=14;

param min_hour_week:=
A		8	
B		8
C		8
D		8
E		7
F		7;
